n_res = 5;
n_events = 22;
n_prec = 54;
source = 1;
sink = 22;
min_lvl = [-7, -3, -5, -1, -3];
max_lvl = [0, 5, 2, 3, 2];
rr = [| 0, -1, 0, 1, 0, 0, -2, -1, -2, -1, 1, 0, 0, 0, -1, -1, 0, 0, 2, -2, 0, 0
      | 0, -1, 0, 2, 2, 0, -2, 0, -2, 0, 2, -2, -2, 1, -1, 0, 2, 0, 1, 0, 0, 0
      | 0, -1, 1, 0, -1, 0, 0, -1, 1, 2, -2, 0, 2, 0, 1, 0, 2, -2, 0, 0, 0, 0
      | 0, 0, 0, 0, -1, 0, 2, 1, 1, -2, 1, 0, -1, -2, 2, 0, -1, 0, 0, 1, 0, 0
      | 0, -1, 2, 0, -1, 0, -1, 0, 2, 0, -2, 1, -1, 0, -1, -1, 0, 1, 1, -2, 0, 0 |];
prec = [| 1, 0, 5
        | 1, 0, 4
        | 1, 0, 3
        | 1, 0, 2
        | 2, 9, 11
        | 2, 10, 7
        | 3, 4, 14
        | 3, -5, 15
        | 3, -1, 7
        | 3, 19, 16
        | 4, 3, 16
        | 4, 0, 10
        | 4, 0, 13
        | 4, 0, 17
        | 5, 17, 14
        | 5, 9, 16
        | 5, 8, 17
        | 5, 15, 13
        | 6, 0, 17
        | 6, -65, 12
        | 7, 5, 20
        | 7, 15, 21
        | 8, 22, 20
        | 8, 3, 16
        | 8, -3, 18
        | 9, 7, 19
        | 10, 30, 14
        | 11, 2, 8
        | 11, 7, 9
        | 12, 7, 10
        | 12, 22, 15
        | 13, 14, 15
        | 13, 21, 7
        | 14, 2, 20
        | 14, -75, 19
        | 14, -73, 9
        | 14, -7, 6
        | 14, 5, 17
        | 15, 1, 6
        | 15, -2, 20
        | 15, 2, 21
        | 16, 27, 17
        | 16, -5, 6
        | 16, 19, 20
        | 17, 10, 21
        | 17, -56, 6
        | 17, -118, 18
        | 18, -2, 9
        | 19, 3, 12
        | 19, 6, 16
        | 19, 5, 17
        | 20, -72, 10
        | 20, 5, 22
        | 21, 10, 22 |];
